6 6
2  3  0  3  1  6  3  7  5  3  4  6
1  2  2  7  4 10  5 10  2  8  4  4
4  5  6  4  2  8  0  9  1  1  4  7
1  7  0  6  2  4  3  3  4  8  5  9 
2  9  1  3  4  5  5  4  0  4  3  1
1  3  3  3  5  9  0 10  4  4  2  1